
;this file is automatically generated: Wed Apr 21 11:03:30 CST 2021

;declarations generated

(declare-fun oclExcludes ( Int Int) Bool)
(declare-fun Cardinality ( Int) Int)
(declare-fun type_bfc1ba90_a296_433e_9275_51365cacc115_Class23 ( Int) Bool)
(declare-fun type_bfc1ba90_a296_433e_9275_51365cacc115_Class24 ( Int) Bool)
(declare-fun type_bfc1ba90_a296_433e_9275_51365cacc115_Class25 ( Int) Bool)
(declare-fun type_bfc1ba90_a296_433e_9275_51365cacc115_Class26 ( Int) Bool)
(declare-fun type_bfc1ba90_a296_433e_9275_51365cacc115_Class20 ( Int) Bool)
(declare-fun type_bfc1ba90_a296_433e_9275_51365cacc115_Class21 ( Int) Bool)
(declare-fun type_bfc1ba90_a296_433e_9275_51365cacc115_Class22 ( Int) Bool)
(declare-fun type_bfc1ba90_a296_433e_9275_51365cacc115_Class27 ( Int) Bool)
(declare-fun type_bfc1ba90_a296_433e_9275_51365cacc115_Class28 ( Int) Bool)
(declare-fun type_bfc1ba90_a296_433e_9275_51365cacc115_Class29 ( Int) Bool)
(declare-fun type_bfc1ba90_a296_433e_9275_51365cacc115_Class12 ( Int) Bool)
(declare-fun type_bfc1ba90_a296_433e_9275_51365cacc115_Class13 ( Int) Bool)
(declare-fun type_bfc1ba90_a296_433e_9275_51365cacc115_Class14 ( Int) Bool)
(declare-fun type_bfc1ba90_a296_433e_9275_51365cacc115_Class15 ( Int) Bool)
(declare-fun type_bfc1ba90_a296_433e_9275_51365cacc115_Class10 ( Int) Bool)
(declare-fun type_bfc1ba90_a296_433e_9275_51365cacc115_Class11 ( Int) Bool)
(declare-fun type_bfc1ba90_a296_433e_9275_51365cacc115_Class16 ( Int) Bool)
(declare-fun type_bfc1ba90_a296_433e_9275_51365cacc115_Class17 ( Int) Bool)
(declare-fun type_bfc1ba90_a296_433e_9275_51365cacc115_Class18 ( Int) Bool)
(declare-fun type_bfc1ba90_a296_433e_9275_51365cacc115_Class19 ( Int) Bool)
(declare-fun obj_5a862ce8_16d8_4a5f_b2b7_4a23ec5846c3 ( Int) Int)
(declare-fun type_bfc1ba90_a296_433e_9275_51365cacc115_Class0 ( Int) Bool)
(declare-fun type_bfc1ba90_a296_433e_9275_51365cacc115_Class1 ( Int) Bool)
(declare-fun type_bfc1ba90_a296_433e_9275_51365cacc115_Class2 ( Int) Bool)
(declare-fun type_bfc1ba90_a296_433e_9275_51365cacc115_Class50 ( Int) Bool)
(declare-fun type_bfc1ba90_a296_433e_9275_51365cacc115_Class51 ( Int) Bool)
(declare-fun type_bfc1ba90_a296_433e_9275_51365cacc115_Class56 ( Int) Bool)
(declare-fun type_bfc1ba90_a296_433e_9275_51365cacc115_Class52 ( Int) Bool)
(declare-fun type_bfc1ba90_a296_433e_9275_51365cacc115_Class53 ( Int) Bool)
(declare-fun type_bfc1ba90_a296_433e_9275_51365cacc115_Class54 ( Int) Bool)
(declare-fun type_bfc1ba90_a296_433e_9275_51365cacc115_Class55 ( Int) Bool)
(declare-fun type_bfc1ba90_a296_433e_9275_51365cacc115_Class7 ( Int) Bool)
(declare-fun type_bfc1ba90_a296_433e_9275_51365cacc115_Class8 ( Int) Bool)
(declare-fun type_bfc1ba90_a296_433e_9275_51365cacc115_Class9 ( Int) Bool)
(declare-fun type_bfc1ba90_a296_433e_9275_51365cacc115_Class3 ( Int) Bool)
(declare-fun type_bfc1ba90_a296_433e_9275_51365cacc115_Class4 ( Int) Bool)
(declare-fun type_bfc1ba90_a296_433e_9275_51365cacc115_Class5 ( Int) Bool)
(declare-fun type_bfc1ba90_a296_433e_9275_51365cacc115_Class6 ( Int) Bool)
(declare-fun type_bfc1ba90_a296_433e_9275_51365cacc115_Class40 ( Int) Bool)
(declare-fun type_bfc1ba90_a296_433e_9275_51365cacc115_Class45 ( Int) Bool)
(declare-fun type_bfc1ba90_a296_433e_9275_51365cacc115_Class46 ( Int) Bool)
(declare-fun type_bfc1ba90_a296_433e_9275_51365cacc115_Class47 ( Int) Bool)
(declare-fun type_bfc1ba90_a296_433e_9275_51365cacc115_Class48 ( Int) Bool)
(declare-fun type_bfc1ba90_a296_433e_9275_51365cacc115_Class41 ( Int) Bool)
(declare-fun type_bfc1ba90_a296_433e_9275_51365cacc115_Class42 ( Int) Bool)
(declare-fun type_bfc1ba90_a296_433e_9275_51365cacc115_Class43 ( Int) Bool)
(declare-fun type_bfc1ba90_a296_433e_9275_51365cacc115_Class44 ( Int) Bool)
(declare-fun type_bfc1ba90_a296_433e_9275_51365cacc115_Class49 ( Int) Bool)
(declare-fun type_bfc1ba90_a296_433e_9275_51365cacc115_Class34 ( Int) Bool)
(declare-fun type_bfc1ba90_a296_433e_9275_51365cacc115_Class35 ( Int) Bool)
(declare-fun type_bfc1ba90_a296_433e_9275_51365cacc115_Class36 ( Int) Bool)
(declare-fun type_bfc1ba90_a296_433e_9275_51365cacc115_Class37 ( Int) Bool)
(declare-fun type_bfc1ba90_a296_433e_9275_51365cacc115_Class30 ( Int) Bool)
(declare-fun type_bfc1ba90_a296_433e_9275_51365cacc115_Class31 ( Int) Bool)
(declare-fun type_bfc1ba90_a296_433e_9275_51365cacc115_Class32 ( Int) Bool)
(declare-fun type_bfc1ba90_a296_433e_9275_51365cacc115_Class33 ( Int) Bool)
(declare-fun type_bfc1ba90_a296_433e_9275_51365cacc115_Class38 ( Int) Bool)
(declare-fun type_bfc1ba90_a296_433e_9275_51365cacc115_Class39 ( Int) Bool)
(declare-fun oclSelect ( Int Bool) Int)
(declare-fun class22_Class22IntAttr2 ( Int) Int)
(declare-fun class22_Class22IntAttr3 ( Int) Int)
(declare-fun Enum0 ( Int) Int)
(declare-fun Enum1 ( Int) Int)
(declare-fun Enum2 ( Int) Int)
(declare-fun container_ ( Int) Int)
(declare-fun class22_Class22BoolAttr0 ( Int) Bool)
(declare-fun class22_Class22BoolAttr1 ( Int) Bool)
(declare-fun oclIncludes ( Int Int) Bool)
(declare-fun ObjAt ( Int Int) Int)

;formula(s) generated
(assert (! (forall ((v Int)) (=> (and (and (and ( type_bfc1ba90_a296_433e_9275_51365cacc115_Class22 v )  ( type_bfc1ba90_a296_433e_9275_51365cacc115_Class15 v ) ) ( type_bfc1ba90_a296_433e_9275_51365cacc115_Class48 v ) ) ( type_bfc1ba90_a296_433e_9275_51365cacc115_Class43 v ) ) (or ( class22_Class22BoolAttr0 ( obj_5a862ce8_16d8_4a5f_b2b7_4a23ec5846c3 v )  )  (and (forall ((v Int)) (=> (and (and (and ( type_bfc1ba90_a296_433e_9275_51365cacc115_Class22 v )  ( type_bfc1ba90_a296_433e_9275_51365cacc115_Class15 v ) ) ( type_bfc1ba90_a296_433e_9275_51365cacc115_Class48 v ) ) ( type_bfc1ba90_a296_433e_9275_51365cacc115_Class43 v ) ) ( class22_Class22BoolAttr1 ( obj_5a862ce8_16d8_4a5f_b2b7_4a23ec5846c3 v )  ) )) (forall ((v Int)) (=> (and (and (and ( type_bfc1ba90_a296_433e_9275_51365cacc115_Class22 v )  ( type_bfc1ba90_a296_433e_9275_51365cacc115_Class15 v ) ) ( type_bfc1ba90_a296_433e_9275_51365cacc115_Class48 v ) ) ( type_bfc1ba90_a296_433e_9275_51365cacc115_Class43 v ) ) (not (= ( class22_Class22IntAttr3 ( obj_5a862ce8_16d8_4a5f_b2b7_4a23ec5846c3 v )  )  19) ))))))):named l0))
(assert (! (forall ((c2_1 Int)(c2_2 Int)) (=> (and (and (and (and ( type_bfc1ba90_a296_433e_9275_51365cacc115_Class22 c2_1 )  ( type_bfc1ba90_a296_433e_9275_51365cacc115_Class15 c2_1 ) ) ( type_bfc1ba90_a296_433e_9275_51365cacc115_Class48 c2_1 ) ) ( type_bfc1ba90_a296_433e_9275_51365cacc115_Class43 c2_1 ) ) (and (and (and ( type_bfc1ba90_a296_433e_9275_51365cacc115_Class22 c2_2 )  ( type_bfc1ba90_a296_433e_9275_51365cacc115_Class15 c2_2 ) ) ( type_bfc1ba90_a296_433e_9275_51365cacc115_Class48 c2_2 ) ) ( type_bfc1ba90_a296_433e_9275_51365cacc115_Class43 c2_2 ) )) (> ( class22_Class22IntAttr3 ( obj_5a862ce8_16d8_4a5f_b2b7_4a23ec5846c3 c2_1 )  )  ( class22_Class22IntAttr2 ( obj_5a862ce8_16d8_4a5f_b2b7_4a23ec5846c3 c2_2 )  ) ))):named l1))
(assert (! (forall ((v Int)) (=> (and (and (and ( type_bfc1ba90_a296_433e_9275_51365cacc115_Class22 v )  ( type_bfc1ba90_a296_433e_9275_51365cacc115_Class15 v ) ) ( type_bfc1ba90_a296_433e_9275_51365cacc115_Class48 v ) ) ( type_bfc1ba90_a296_433e_9275_51365cacc115_Class43 v ) ) (<= ( class22_Class22IntAttr3 ( obj_5a862ce8_16d8_4a5f_b2b7_4a23ec5846c3 v )  )  1))):named l2))
(assert (! (forall ((c1 Int)) (=> (and (and (and ( type_bfc1ba90_a296_433e_9275_51365cacc115_Class22 c1 )  ( type_bfc1ba90_a296_433e_9275_51365cacc115_Class15 c1 ) ) ( type_bfc1ba90_a296_433e_9275_51365cacc115_Class48 c1 ) ) ( type_bfc1ba90_a296_433e_9275_51365cacc115_Class43 c1 ) ) (not (= ( class22_Class22IntAttr3 ( obj_5a862ce8_16d8_4a5f_b2b7_4a23ec5846c3 c1 )  )  12) ))):named l3))
(assert (! (exists ((o Int)) (and (and (and (and (and (and ( type_bfc1ba90_a296_433e_9275_51365cacc115_Class0 ( obj_5a862ce8_16d8_4a5f_b2b7_4a23ec5846c3 o )  )  ( type_bfc1ba90_a296_433e_9275_51365cacc115_Class44 ( obj_5a862ce8_16d8_4a5f_b2b7_4a23ec5846c3 o )  ) ) ( type_bfc1ba90_a296_433e_9275_51365cacc115_Class36 ( obj_5a862ce8_16d8_4a5f_b2b7_4a23ec5846c3 o )  ) ) ( type_bfc1ba90_a296_433e_9275_51365cacc115_Class35 ( obj_5a862ce8_16d8_4a5f_b2b7_4a23ec5846c3 o )  ) ) ( type_bfc1ba90_a296_433e_9275_51365cacc115_Class27 ( obj_5a862ce8_16d8_4a5f_b2b7_4a23ec5846c3 o )  ) ) ( type_bfc1ba90_a296_433e_9275_51365cacc115_Class15 ( obj_5a862ce8_16d8_4a5f_b2b7_4a23ec5846c3 o )  ) ) ( type_bfc1ba90_a296_433e_9275_51365cacc115_Class28 ( obj_5a862ce8_16d8_4a5f_b2b7_4a23ec5846c3 o )  ) )):named c0))
(assert (! (exists ((o Int)) ( type_bfc1ba90_a296_433e_9275_51365cacc115_Class1 ( obj_5a862ce8_16d8_4a5f_b2b7_4a23ec5846c3 o )  ) ):named c1))
(assert (! (exists ((o Int)) (and (and ( type_bfc1ba90_a296_433e_9275_51365cacc115_Class10 ( obj_5a862ce8_16d8_4a5f_b2b7_4a23ec5846c3 o )  )  ( type_bfc1ba90_a296_433e_9275_51365cacc115_Class15 ( obj_5a862ce8_16d8_4a5f_b2b7_4a23ec5846c3 o )  ) ) ( type_bfc1ba90_a296_433e_9275_51365cacc115_Class21 ( obj_5a862ce8_16d8_4a5f_b2b7_4a23ec5846c3 o )  ) )):named c2))
(assert (! (exists ((o Int)) ( type_bfc1ba90_a296_433e_9275_51365cacc115_Class11 ( obj_5a862ce8_16d8_4a5f_b2b7_4a23ec5846c3 o )  ) ):named c3))
(assert (! (exists ((o Int)) (and (and ( type_bfc1ba90_a296_433e_9275_51365cacc115_Class12 ( obj_5a862ce8_16d8_4a5f_b2b7_4a23ec5846c3 o )  )  ( type_bfc1ba90_a296_433e_9275_51365cacc115_Class33 ( obj_5a862ce8_16d8_4a5f_b2b7_4a23ec5846c3 o )  ) ) ( type_bfc1ba90_a296_433e_9275_51365cacc115_Class15 ( obj_5a862ce8_16d8_4a5f_b2b7_4a23ec5846c3 o )  ) )):named c4))
(assert (! (exists ((o Int)) ( type_bfc1ba90_a296_433e_9275_51365cacc115_Class13 ( obj_5a862ce8_16d8_4a5f_b2b7_4a23ec5846c3 o )  ) ):named c5))
(assert (! (exists ((o Int)) (and (and (and (and (and (and ( type_bfc1ba90_a296_433e_9275_51365cacc115_Class14 ( obj_5a862ce8_16d8_4a5f_b2b7_4a23ec5846c3 o )  )  ( type_bfc1ba90_a296_433e_9275_51365cacc115_Class36 ( obj_5a862ce8_16d8_4a5f_b2b7_4a23ec5846c3 o )  ) ) ( type_bfc1ba90_a296_433e_9275_51365cacc115_Class35 ( obj_5a862ce8_16d8_4a5f_b2b7_4a23ec5846c3 o )  ) ) ( type_bfc1ba90_a296_433e_9275_51365cacc115_Class27 ( obj_5a862ce8_16d8_4a5f_b2b7_4a23ec5846c3 o )  ) ) ( type_bfc1ba90_a296_433e_9275_51365cacc115_Class9 ( obj_5a862ce8_16d8_4a5f_b2b7_4a23ec5846c3 o )  ) ) ( type_bfc1ba90_a296_433e_9275_51365cacc115_Class15 ( obj_5a862ce8_16d8_4a5f_b2b7_4a23ec5846c3 o )  ) ) ( type_bfc1ba90_a296_433e_9275_51365cacc115_Class28 ( obj_5a862ce8_16d8_4a5f_b2b7_4a23ec5846c3 o )  ) )):named c6))
(assert (! (exists ((o Int)) ( type_bfc1ba90_a296_433e_9275_51365cacc115_Class15 ( obj_5a862ce8_16d8_4a5f_b2b7_4a23ec5846c3 o )  ) ):named c7))
(assert (! (exists ((o Int)) ( type_bfc1ba90_a296_433e_9275_51365cacc115_Class16 ( obj_5a862ce8_16d8_4a5f_b2b7_4a23ec5846c3 o )  ) ):named c8))
(assert (! (exists ((o Int)) (and (and (and (and (and (and ( type_bfc1ba90_a296_433e_9275_51365cacc115_Class17 ( obj_5a862ce8_16d8_4a5f_b2b7_4a23ec5846c3 o )  )  ( type_bfc1ba90_a296_433e_9275_51365cacc115_Class44 ( obj_5a862ce8_16d8_4a5f_b2b7_4a23ec5846c3 o )  ) ) ( type_bfc1ba90_a296_433e_9275_51365cacc115_Class36 ( obj_5a862ce8_16d8_4a5f_b2b7_4a23ec5846c3 o )  ) ) ( type_bfc1ba90_a296_433e_9275_51365cacc115_Class35 ( obj_5a862ce8_16d8_4a5f_b2b7_4a23ec5846c3 o )  ) ) ( type_bfc1ba90_a296_433e_9275_51365cacc115_Class27 ( obj_5a862ce8_16d8_4a5f_b2b7_4a23ec5846c3 o )  ) ) ( type_bfc1ba90_a296_433e_9275_51365cacc115_Class15 ( obj_5a862ce8_16d8_4a5f_b2b7_4a23ec5846c3 o )  ) ) ( type_bfc1ba90_a296_433e_9275_51365cacc115_Class28 ( obj_5a862ce8_16d8_4a5f_b2b7_4a23ec5846c3 o )  ) )):named c9))
(assert (! (exists ((o Int)) ( type_bfc1ba90_a296_433e_9275_51365cacc115_Class18 ( obj_5a862ce8_16d8_4a5f_b2b7_4a23ec5846c3 o )  ) ):named c10))
(assert (! (exists ((o Int)) (and (and (and (and (and (and ( type_bfc1ba90_a296_433e_9275_51365cacc115_Class19 ( obj_5a862ce8_16d8_4a5f_b2b7_4a23ec5846c3 o )  )  ( type_bfc1ba90_a296_433e_9275_51365cacc115_Class36 ( obj_5a862ce8_16d8_4a5f_b2b7_4a23ec5846c3 o )  ) ) ( type_bfc1ba90_a296_433e_9275_51365cacc115_Class35 ( obj_5a862ce8_16d8_4a5f_b2b7_4a23ec5846c3 o )  ) ) ( type_bfc1ba90_a296_433e_9275_51365cacc115_Class27 ( obj_5a862ce8_16d8_4a5f_b2b7_4a23ec5846c3 o )  ) ) ( type_bfc1ba90_a296_433e_9275_51365cacc115_Class9 ( obj_5a862ce8_16d8_4a5f_b2b7_4a23ec5846c3 o )  ) ) ( type_bfc1ba90_a296_433e_9275_51365cacc115_Class15 ( obj_5a862ce8_16d8_4a5f_b2b7_4a23ec5846c3 o )  ) ) ( type_bfc1ba90_a296_433e_9275_51365cacc115_Class28 ( obj_5a862ce8_16d8_4a5f_b2b7_4a23ec5846c3 o )  ) )):named c11))
(assert (! (exists ((o Int)) (and (and (and (and (and (and ( type_bfc1ba90_a296_433e_9275_51365cacc115_Class2 ( obj_5a862ce8_16d8_4a5f_b2b7_4a23ec5846c3 o )  )  ( type_bfc1ba90_a296_433e_9275_51365cacc115_Class36 ( obj_5a862ce8_16d8_4a5f_b2b7_4a23ec5846c3 o )  ) ) ( type_bfc1ba90_a296_433e_9275_51365cacc115_Class35 ( obj_5a862ce8_16d8_4a5f_b2b7_4a23ec5846c3 o )  ) ) ( type_bfc1ba90_a296_433e_9275_51365cacc115_Class27 ( obj_5a862ce8_16d8_4a5f_b2b7_4a23ec5846c3 o )  ) ) ( type_bfc1ba90_a296_433e_9275_51365cacc115_Class15 ( obj_5a862ce8_16d8_4a5f_b2b7_4a23ec5846c3 o )  ) ) ( type_bfc1ba90_a296_433e_9275_51365cacc115_Class28 ( obj_5a862ce8_16d8_4a5f_b2b7_4a23ec5846c3 o )  ) ) ( type_bfc1ba90_a296_433e_9275_51365cacc115_Class54 ( obj_5a862ce8_16d8_4a5f_b2b7_4a23ec5846c3 o )  ) )):named c12))
(assert (! (exists ((o Int)) (and ( type_bfc1ba90_a296_433e_9275_51365cacc115_Class20 ( obj_5a862ce8_16d8_4a5f_b2b7_4a23ec5846c3 o )  )  ( type_bfc1ba90_a296_433e_9275_51365cacc115_Class15 ( obj_5a862ce8_16d8_4a5f_b2b7_4a23ec5846c3 o )  ) )):named c13))
(assert (! (exists ((o Int)) (and ( type_bfc1ba90_a296_433e_9275_51365cacc115_Class21 ( obj_5a862ce8_16d8_4a5f_b2b7_4a23ec5846c3 o )  )  ( type_bfc1ba90_a296_433e_9275_51365cacc115_Class15 ( obj_5a862ce8_16d8_4a5f_b2b7_4a23ec5846c3 o )  ) )):named c14))
(assert (! (exists ((o Int)) (and (and (and ( type_bfc1ba90_a296_433e_9275_51365cacc115_Class22 ( obj_5a862ce8_16d8_4a5f_b2b7_4a23ec5846c3 o )  )  ( type_bfc1ba90_a296_433e_9275_51365cacc115_Class15 ( obj_5a862ce8_16d8_4a5f_b2b7_4a23ec5846c3 o )  ) ) ( type_bfc1ba90_a296_433e_9275_51365cacc115_Class48 ( obj_5a862ce8_16d8_4a5f_b2b7_4a23ec5846c3 o )  ) ) ( type_bfc1ba90_a296_433e_9275_51365cacc115_Class43 ( obj_5a862ce8_16d8_4a5f_b2b7_4a23ec5846c3 o )  ) )):named c15))
(assert (! (exists ((o Int)) ( type_bfc1ba90_a296_433e_9275_51365cacc115_Class23 ( obj_5a862ce8_16d8_4a5f_b2b7_4a23ec5846c3 o )  ) ):named c16))
(assert (! (exists ((o Int)) ( type_bfc1ba90_a296_433e_9275_51365cacc115_Class24 ( obj_5a862ce8_16d8_4a5f_b2b7_4a23ec5846c3 o )  ) ):named c17))
(assert (! (exists ((o Int)) (and (and (and ( type_bfc1ba90_a296_433e_9275_51365cacc115_Class25 ( obj_5a862ce8_16d8_4a5f_b2b7_4a23ec5846c3 o )  )  ( type_bfc1ba90_a296_433e_9275_51365cacc115_Class12 ( obj_5a862ce8_16d8_4a5f_b2b7_4a23ec5846c3 o )  ) ) ( type_bfc1ba90_a296_433e_9275_51365cacc115_Class33 ( obj_5a862ce8_16d8_4a5f_b2b7_4a23ec5846c3 o )  ) ) ( type_bfc1ba90_a296_433e_9275_51365cacc115_Class15 ( obj_5a862ce8_16d8_4a5f_b2b7_4a23ec5846c3 o )  ) )):named c18))
(assert (! (exists ((o Int)) ( type_bfc1ba90_a296_433e_9275_51365cacc115_Class26 ( obj_5a862ce8_16d8_4a5f_b2b7_4a23ec5846c3 o )  ) ):named c19))
(assert (! (exists ((o Int)) (and ( type_bfc1ba90_a296_433e_9275_51365cacc115_Class27 ( obj_5a862ce8_16d8_4a5f_b2b7_4a23ec5846c3 o )  )  ( type_bfc1ba90_a296_433e_9275_51365cacc115_Class15 ( obj_5a862ce8_16d8_4a5f_b2b7_4a23ec5846c3 o )  ) )):named c20))
(assert (! (exists ((o Int)) (and (and ( type_bfc1ba90_a296_433e_9275_51365cacc115_Class28 ( obj_5a862ce8_16d8_4a5f_b2b7_4a23ec5846c3 o )  )  ( type_bfc1ba90_a296_433e_9275_51365cacc115_Class27 ( obj_5a862ce8_16d8_4a5f_b2b7_4a23ec5846c3 o )  ) ) ( type_bfc1ba90_a296_433e_9275_51365cacc115_Class15 ( obj_5a862ce8_16d8_4a5f_b2b7_4a23ec5846c3 o )  ) )):named c21))
(assert (! (exists ((o Int)) (and (and (and (and (and ( type_bfc1ba90_a296_433e_9275_51365cacc115_Class29 ( obj_5a862ce8_16d8_4a5f_b2b7_4a23ec5846c3 o )  )  ( type_bfc1ba90_a296_433e_9275_51365cacc115_Class36 ( obj_5a862ce8_16d8_4a5f_b2b7_4a23ec5846c3 o )  ) ) ( type_bfc1ba90_a296_433e_9275_51365cacc115_Class35 ( obj_5a862ce8_16d8_4a5f_b2b7_4a23ec5846c3 o )  ) ) ( type_bfc1ba90_a296_433e_9275_51365cacc115_Class27 ( obj_5a862ce8_16d8_4a5f_b2b7_4a23ec5846c3 o )  ) ) ( type_bfc1ba90_a296_433e_9275_51365cacc115_Class15 ( obj_5a862ce8_16d8_4a5f_b2b7_4a23ec5846c3 o )  ) ) ( type_bfc1ba90_a296_433e_9275_51365cacc115_Class28 ( obj_5a862ce8_16d8_4a5f_b2b7_4a23ec5846c3 o )  ) )):named c22))
(assert (! (exists ((o Int)) ( type_bfc1ba90_a296_433e_9275_51365cacc115_Class3 ( obj_5a862ce8_16d8_4a5f_b2b7_4a23ec5846c3 o )  ) ):named c23))
(assert (! (exists ((o Int)) (and (and ( type_bfc1ba90_a296_433e_9275_51365cacc115_Class30 ( obj_5a862ce8_16d8_4a5f_b2b7_4a23ec5846c3 o )  )  ( type_bfc1ba90_a296_433e_9275_51365cacc115_Class33 ( obj_5a862ce8_16d8_4a5f_b2b7_4a23ec5846c3 o )  ) ) ( type_bfc1ba90_a296_433e_9275_51365cacc115_Class15 ( obj_5a862ce8_16d8_4a5f_b2b7_4a23ec5846c3 o )  ) )):named c24))
(assert (! (exists ((o Int)) (and (and (and (and (and (and ( type_bfc1ba90_a296_433e_9275_51365cacc115_Class31 ( obj_5a862ce8_16d8_4a5f_b2b7_4a23ec5846c3 o )  )  ( type_bfc1ba90_a296_433e_9275_51365cacc115_Class36 ( obj_5a862ce8_16d8_4a5f_b2b7_4a23ec5846c3 o )  ) ) ( type_bfc1ba90_a296_433e_9275_51365cacc115_Class35 ( obj_5a862ce8_16d8_4a5f_b2b7_4a23ec5846c3 o )  ) ) ( type_bfc1ba90_a296_433e_9275_51365cacc115_Class27 ( obj_5a862ce8_16d8_4a5f_b2b7_4a23ec5846c3 o )  ) ) ( type_bfc1ba90_a296_433e_9275_51365cacc115_Class15 ( obj_5a862ce8_16d8_4a5f_b2b7_4a23ec5846c3 o )  ) ) ( type_bfc1ba90_a296_433e_9275_51365cacc115_Class28 ( obj_5a862ce8_16d8_4a5f_b2b7_4a23ec5846c3 o )  ) ) ( type_bfc1ba90_a296_433e_9275_51365cacc115_Class54 ( obj_5a862ce8_16d8_4a5f_b2b7_4a23ec5846c3 o )  ) )):named c25))
(assert (! (exists ((o Int)) ( type_bfc1ba90_a296_433e_9275_51365cacc115_Class32 ( obj_5a862ce8_16d8_4a5f_b2b7_4a23ec5846c3 o )  ) ):named c26))
(assert (! (exists ((o Int)) (and ( type_bfc1ba90_a296_433e_9275_51365cacc115_Class33 ( obj_5a862ce8_16d8_4a5f_b2b7_4a23ec5846c3 o )  )  ( type_bfc1ba90_a296_433e_9275_51365cacc115_Class15 ( obj_5a862ce8_16d8_4a5f_b2b7_4a23ec5846c3 o )  ) )):named c27))
(assert (! (exists ((o Int)) ( type_bfc1ba90_a296_433e_9275_51365cacc115_Class34 ( obj_5a862ce8_16d8_4a5f_b2b7_4a23ec5846c3 o )  ) ):named c28))
(assert (! (exists ((o Int)) (and (and (and (and ( type_bfc1ba90_a296_433e_9275_51365cacc115_Class35 ( obj_5a862ce8_16d8_4a5f_b2b7_4a23ec5846c3 o )  )  ( type_bfc1ba90_a296_433e_9275_51365cacc115_Class36 ( obj_5a862ce8_16d8_4a5f_b2b7_4a23ec5846c3 o )  ) ) ( type_bfc1ba90_a296_433e_9275_51365cacc115_Class27 ( obj_5a862ce8_16d8_4a5f_b2b7_4a23ec5846c3 o )  ) ) ( type_bfc1ba90_a296_433e_9275_51365cacc115_Class15 ( obj_5a862ce8_16d8_4a5f_b2b7_4a23ec5846c3 o )  ) ) ( type_bfc1ba90_a296_433e_9275_51365cacc115_Class28 ( obj_5a862ce8_16d8_4a5f_b2b7_4a23ec5846c3 o )  ) )):named c29))
(assert (! (exists ((o Int)) (and (and (and ( type_bfc1ba90_a296_433e_9275_51365cacc115_Class36 ( obj_5a862ce8_16d8_4a5f_b2b7_4a23ec5846c3 o )  )  ( type_bfc1ba90_a296_433e_9275_51365cacc115_Class27 ( obj_5a862ce8_16d8_4a5f_b2b7_4a23ec5846c3 o )  ) ) ( type_bfc1ba90_a296_433e_9275_51365cacc115_Class15 ( obj_5a862ce8_16d8_4a5f_b2b7_4a23ec5846c3 o )  ) ) ( type_bfc1ba90_a296_433e_9275_51365cacc115_Class28 ( obj_5a862ce8_16d8_4a5f_b2b7_4a23ec5846c3 o )  ) )):named c30))
(assert (! (exists ((o Int)) (and ( type_bfc1ba90_a296_433e_9275_51365cacc115_Class37 ( obj_5a862ce8_16d8_4a5f_b2b7_4a23ec5846c3 o )  )  ( type_bfc1ba90_a296_433e_9275_51365cacc115_Class15 ( obj_5a862ce8_16d8_4a5f_b2b7_4a23ec5846c3 o )  ) )):named c31))
(assert (! (exists ((o Int)) (and (and (and (and ( type_bfc1ba90_a296_433e_9275_51365cacc115_Class38 ( obj_5a862ce8_16d8_4a5f_b2b7_4a23ec5846c3 o )  )  ( type_bfc1ba90_a296_433e_9275_51365cacc115_Class22 ( obj_5a862ce8_16d8_4a5f_b2b7_4a23ec5846c3 o )  ) ) ( type_bfc1ba90_a296_433e_9275_51365cacc115_Class15 ( obj_5a862ce8_16d8_4a5f_b2b7_4a23ec5846c3 o )  ) ) ( type_bfc1ba90_a296_433e_9275_51365cacc115_Class48 ( obj_5a862ce8_16d8_4a5f_b2b7_4a23ec5846c3 o )  ) ) ( type_bfc1ba90_a296_433e_9275_51365cacc115_Class43 ( obj_5a862ce8_16d8_4a5f_b2b7_4a23ec5846c3 o )  ) )):named c32))
(assert (! (exists ((o Int)) ( type_bfc1ba90_a296_433e_9275_51365cacc115_Class39 ( obj_5a862ce8_16d8_4a5f_b2b7_4a23ec5846c3 o )  ) ):named c33))
(assert (! (exists ((o Int)) (and (and (and (and (and (and ( type_bfc1ba90_a296_433e_9275_51365cacc115_Class4 ( obj_5a862ce8_16d8_4a5f_b2b7_4a23ec5846c3 o )  )  ( type_bfc1ba90_a296_433e_9275_51365cacc115_Class44 ( obj_5a862ce8_16d8_4a5f_b2b7_4a23ec5846c3 o )  ) ) ( type_bfc1ba90_a296_433e_9275_51365cacc115_Class36 ( obj_5a862ce8_16d8_4a5f_b2b7_4a23ec5846c3 o )  ) ) ( type_bfc1ba90_a296_433e_9275_51365cacc115_Class35 ( obj_5a862ce8_16d8_4a5f_b2b7_4a23ec5846c3 o )  ) ) ( type_bfc1ba90_a296_433e_9275_51365cacc115_Class27 ( obj_5a862ce8_16d8_4a5f_b2b7_4a23ec5846c3 o )  ) ) ( type_bfc1ba90_a296_433e_9275_51365cacc115_Class15 ( obj_5a862ce8_16d8_4a5f_b2b7_4a23ec5846c3 o )  ) ) ( type_bfc1ba90_a296_433e_9275_51365cacc115_Class28 ( obj_5a862ce8_16d8_4a5f_b2b7_4a23ec5846c3 o )  ) )):named c34))
(assert (! (exists ((o Int)) ( type_bfc1ba90_a296_433e_9275_51365cacc115_Class40 ( obj_5a862ce8_16d8_4a5f_b2b7_4a23ec5846c3 o )  ) ):named c35))
(assert (! (exists ((o Int)) ( type_bfc1ba90_a296_433e_9275_51365cacc115_Class41 ( obj_5a862ce8_16d8_4a5f_b2b7_4a23ec5846c3 o )  ) ):named c36))
(assert (! (exists ((o Int)) ( type_bfc1ba90_a296_433e_9275_51365cacc115_Class42 ( obj_5a862ce8_16d8_4a5f_b2b7_4a23ec5846c3 o )  ) ):named c37))
(assert (! (exists ((o Int)) (and ( type_bfc1ba90_a296_433e_9275_51365cacc115_Class43 ( obj_5a862ce8_16d8_4a5f_b2b7_4a23ec5846c3 o )  )  ( type_bfc1ba90_a296_433e_9275_51365cacc115_Class15 ( obj_5a862ce8_16d8_4a5f_b2b7_4a23ec5846c3 o )  ) )):named c38))
(assert (! (exists ((o Int)) (and (and (and (and (and ( type_bfc1ba90_a296_433e_9275_51365cacc115_Class44 ( obj_5a862ce8_16d8_4a5f_b2b7_4a23ec5846c3 o )  )  ( type_bfc1ba90_a296_433e_9275_51365cacc115_Class36 ( obj_5a862ce8_16d8_4a5f_b2b7_4a23ec5846c3 o )  ) ) ( type_bfc1ba90_a296_433e_9275_51365cacc115_Class35 ( obj_5a862ce8_16d8_4a5f_b2b7_4a23ec5846c3 o )  ) ) ( type_bfc1ba90_a296_433e_9275_51365cacc115_Class27 ( obj_5a862ce8_16d8_4a5f_b2b7_4a23ec5846c3 o )  ) ) ( type_bfc1ba90_a296_433e_9275_51365cacc115_Class15 ( obj_5a862ce8_16d8_4a5f_b2b7_4a23ec5846c3 o )  ) ) ( type_bfc1ba90_a296_433e_9275_51365cacc115_Class28 ( obj_5a862ce8_16d8_4a5f_b2b7_4a23ec5846c3 o )  ) )):named c39))
(assert (! (exists ((o Int)) (and (and (and (and (and (and ( type_bfc1ba90_a296_433e_9275_51365cacc115_Class45 ( obj_5a862ce8_16d8_4a5f_b2b7_4a23ec5846c3 o )  )  ( type_bfc1ba90_a296_433e_9275_51365cacc115_Class36 ( obj_5a862ce8_16d8_4a5f_b2b7_4a23ec5846c3 o )  ) ) ( type_bfc1ba90_a296_433e_9275_51365cacc115_Class35 ( obj_5a862ce8_16d8_4a5f_b2b7_4a23ec5846c3 o )  ) ) ( type_bfc1ba90_a296_433e_9275_51365cacc115_Class27 ( obj_5a862ce8_16d8_4a5f_b2b7_4a23ec5846c3 o )  ) ) ( type_bfc1ba90_a296_433e_9275_51365cacc115_Class9 ( obj_5a862ce8_16d8_4a5f_b2b7_4a23ec5846c3 o )  ) ) ( type_bfc1ba90_a296_433e_9275_51365cacc115_Class15 ( obj_5a862ce8_16d8_4a5f_b2b7_4a23ec5846c3 o )  ) ) ( type_bfc1ba90_a296_433e_9275_51365cacc115_Class28 ( obj_5a862ce8_16d8_4a5f_b2b7_4a23ec5846c3 o )  ) )):named c40))
(assert (! (exists ((o Int)) (and (and ( type_bfc1ba90_a296_433e_9275_51365cacc115_Class46 ( obj_5a862ce8_16d8_4a5f_b2b7_4a23ec5846c3 o )  )  ( type_bfc1ba90_a296_433e_9275_51365cacc115_Class15 ( obj_5a862ce8_16d8_4a5f_b2b7_4a23ec5846c3 o )  ) ) ( type_bfc1ba90_a296_433e_9275_51365cacc115_Class5 ( obj_5a862ce8_16d8_4a5f_b2b7_4a23ec5846c3 o )  ) )):named c41))
(assert (! (exists ((o Int)) ( type_bfc1ba90_a296_433e_9275_51365cacc115_Class47 ( obj_5a862ce8_16d8_4a5f_b2b7_4a23ec5846c3 o )  ) ):named c42))
(assert (! (exists ((o Int)) (and ( type_bfc1ba90_a296_433e_9275_51365cacc115_Class48 ( obj_5a862ce8_16d8_4a5f_b2b7_4a23ec5846c3 o )  )  ( type_bfc1ba90_a296_433e_9275_51365cacc115_Class15 ( obj_5a862ce8_16d8_4a5f_b2b7_4a23ec5846c3 o )  ) )):named c43))
(assert (! (exists ((o Int)) ( type_bfc1ba90_a296_433e_9275_51365cacc115_Class49 ( obj_5a862ce8_16d8_4a5f_b2b7_4a23ec5846c3 o )  ) ):named c44))
(assert (! (exists ((o Int)) (and ( type_bfc1ba90_a296_433e_9275_51365cacc115_Class5 ( obj_5a862ce8_16d8_4a5f_b2b7_4a23ec5846c3 o )  )  ( type_bfc1ba90_a296_433e_9275_51365cacc115_Class15 ( obj_5a862ce8_16d8_4a5f_b2b7_4a23ec5846c3 o )  ) )):named c45))
(assert (! (exists ((o Int)) ( type_bfc1ba90_a296_433e_9275_51365cacc115_Class50 ( obj_5a862ce8_16d8_4a5f_b2b7_4a23ec5846c3 o )  ) ):named c46))
(assert (! (exists ((o Int)) ( type_bfc1ba90_a296_433e_9275_51365cacc115_Class51 ( obj_5a862ce8_16d8_4a5f_b2b7_4a23ec5846c3 o )  ) ):named c47))
(assert (! (exists ((o Int)) ( type_bfc1ba90_a296_433e_9275_51365cacc115_Class52 ( obj_5a862ce8_16d8_4a5f_b2b7_4a23ec5846c3 o )  ) ):named c48))
(assert (! (exists ((o Int)) ( type_bfc1ba90_a296_433e_9275_51365cacc115_Class53 ( obj_5a862ce8_16d8_4a5f_b2b7_4a23ec5846c3 o )  ) ):named c49))
(assert (! (exists ((o Int)) (and (and (and (and (and ( type_bfc1ba90_a296_433e_9275_51365cacc115_Class54 ( obj_5a862ce8_16d8_4a5f_b2b7_4a23ec5846c3 o )  )  ( type_bfc1ba90_a296_433e_9275_51365cacc115_Class36 ( obj_5a862ce8_16d8_4a5f_b2b7_4a23ec5846c3 o )  ) ) ( type_bfc1ba90_a296_433e_9275_51365cacc115_Class35 ( obj_5a862ce8_16d8_4a5f_b2b7_4a23ec5846c3 o )  ) ) ( type_bfc1ba90_a296_433e_9275_51365cacc115_Class27 ( obj_5a862ce8_16d8_4a5f_b2b7_4a23ec5846c3 o )  ) ) ( type_bfc1ba90_a296_433e_9275_51365cacc115_Class15 ( obj_5a862ce8_16d8_4a5f_b2b7_4a23ec5846c3 o )  ) ) ( type_bfc1ba90_a296_433e_9275_51365cacc115_Class28 ( obj_5a862ce8_16d8_4a5f_b2b7_4a23ec5846c3 o )  ) )):named c50))
(assert (! (exists ((o Int)) ( type_bfc1ba90_a296_433e_9275_51365cacc115_Class55 ( obj_5a862ce8_16d8_4a5f_b2b7_4a23ec5846c3 o )  ) ):named c51))
(assert (! (exists ((o Int)) ( type_bfc1ba90_a296_433e_9275_51365cacc115_Class56 ( obj_5a862ce8_16d8_4a5f_b2b7_4a23ec5846c3 o )  ) ):named c52))
(assert (! (exists ((o Int)) (and (and (and (and ( type_bfc1ba90_a296_433e_9275_51365cacc115_Class6 ( obj_5a862ce8_16d8_4a5f_b2b7_4a23ec5846c3 o )  )  ( type_bfc1ba90_a296_433e_9275_51365cacc115_Class22 ( obj_5a862ce8_16d8_4a5f_b2b7_4a23ec5846c3 o )  ) ) ( type_bfc1ba90_a296_433e_9275_51365cacc115_Class15 ( obj_5a862ce8_16d8_4a5f_b2b7_4a23ec5846c3 o )  ) ) ( type_bfc1ba90_a296_433e_9275_51365cacc115_Class48 ( obj_5a862ce8_16d8_4a5f_b2b7_4a23ec5846c3 o )  ) ) ( type_bfc1ba90_a296_433e_9275_51365cacc115_Class43 ( obj_5a862ce8_16d8_4a5f_b2b7_4a23ec5846c3 o )  ) )):named c53))
(assert (! (exists ((o Int)) ( type_bfc1ba90_a296_433e_9275_51365cacc115_Class7 ( obj_5a862ce8_16d8_4a5f_b2b7_4a23ec5846c3 o )  ) ):named c54))
(assert (! (exists ((o Int)) ( type_bfc1ba90_a296_433e_9275_51365cacc115_Class8 ( obj_5a862ce8_16d8_4a5f_b2b7_4a23ec5846c3 o )  ) ):named c55))
(assert (! (exists ((o Int)) (and (and (and (and (and ( type_bfc1ba90_a296_433e_9275_51365cacc115_Class9 ( obj_5a862ce8_16d8_4a5f_b2b7_4a23ec5846c3 o )  )  ( type_bfc1ba90_a296_433e_9275_51365cacc115_Class36 ( obj_5a862ce8_16d8_4a5f_b2b7_4a23ec5846c3 o )  ) ) ( type_bfc1ba90_a296_433e_9275_51365cacc115_Class35 ( obj_5a862ce8_16d8_4a5f_b2b7_4a23ec5846c3 o )  ) ) ( type_bfc1ba90_a296_433e_9275_51365cacc115_Class27 ( obj_5a862ce8_16d8_4a5f_b2b7_4a23ec5846c3 o )  ) ) ( type_bfc1ba90_a296_433e_9275_51365cacc115_Class15 ( obj_5a862ce8_16d8_4a5f_b2b7_4a23ec5846c3 o )  ) ) ( type_bfc1ba90_a296_433e_9275_51365cacc115_Class28 ( obj_5a862ce8_16d8_4a5f_b2b7_4a23ec5846c3 o )  ) )):named c56))

 ;end of formula 